NAME: concorde91
TYPE: TSP
DIMENSION: 15 
EDGE_WEIGHT_TYPE: EUC_2D
NODE_COORD_SECTION
1 76 26
2 92 34
3 32 21
4 8 1
5 92 38
6 96 56
7 67 68
8 75 75
9 44 95
10 11 16
11 68 32
12 73 13
13 48 64
14 17 33
15 68 65
